NAME : mtspf
COMMENT : file for mtspf test
TYPE : ATSP
DIMENSION : 6
EDGE_WEIGHT_TYPE : EXPLICIT
EDGE_WEIGHT_FORMAT : FULL_MATRIX
EDGE_WEIGHT_SECTION
0 0 99999 0 7 13 
99999 0 0 8 16 8 
0 99999 0 6 99999 10 
0 0 0 0 8 0 
0 0 0 8 0 14 
0 0 0 6 14 0 
